NAME 
ROWS
 N  OBJ
 L  R0      
 L  R1      
 E  R2      
COLUMNS
    MARKER    'MARKER'                 'INTORG'
    I0(3)     OBJ       -996
    I0(3)     R0        -803
    I0(3)     R1        -214
    I0(3)     R2        612
    I1(3)     OBJ       -622
    I1(3)     R0        -154
    I1(3)     R1        -29
    I1(3)     R2        396
    I2(3)     OBJ       -617
    I2(3)     R0        -868
    I2(3)     R1        -737
    I2(3)     R2        910
    I3(3)     OBJ       -308
    I3(3)     R0        -419
    I3(3)     R1        -82
    I3(3)     R2        348
    I4(3)     OBJ       -648
    I4(3)     R0        -461
    I4(3)     R1        -448
    I4(3)     R2        477
    I5(3)     OBJ       -476
    I5(3)     R0        -516
    I5(3)     R1        -198
    I5(3)     R2        358
    I6(3)     OBJ       -123
    I6(3)     R0        -895
    I6(3)     R1        -597
    I6(3)     R2        546
    I7(3)     OBJ       -784
    I7(3)     R0        -584
    I7(3)     R1        -342
    I7(3)     R2        74
    I8(3)     OBJ       -293
    I8(3)     R0        -299
    I8(3)     R1        -782
    I8(3)     R2        700
    I9(3)     OBJ       -796
    I9(3)     R0        -187
    I9(3)     R1        -895
    I9(3)     R2        327
    I10(3)    OBJ       -246
    I10(3)    R0        -379
    I10(3)    R1        -529
    I10(3)    R2        969
    I11(3)    OBJ       -327
    I11(3)    R0        -544
    I11(3)    R1        -161
    I11(3)    R2        228
    I12(3)    OBJ       -784
    I12(3)    R0        -513
    I12(3)    R1        -439
    I12(3)    R2        487
    I13(3)    OBJ       -396
    I13(3)    R0        -163
    I13(3)    R1        -41
    I13(3)    R2        408
    I14(3)    OBJ       -952
    I14(3)    R0        -940
    I14(3)    R1        -323
    I14(3)    R2        268
    I15(3)    OBJ       -778
    I15(3)    R0        -465
    I15(3)    R1        -379
    I15(3)    R2        810
    I16(3)    OBJ       -553
    I16(3)    R0        -941
    I16(3)    R1        -505
    I16(3)    R2        786
    I17(3)    OBJ       -386
    I17(3)    R0        -492
    I17(3)    R1        -264
    I17(3)    R2        773
    I18(3)    OBJ       -842
    I18(3)    R0        -850
    I18(3)    R1        -870
    I18(3)    R2        74
    I19(3)    OBJ       -807
    I19(3)    R0        -782
    I19(3)    R1        -355
    I19(3)    R2        656
    I20(3)    OBJ       -322
    I20(3)    R0        -298
    I20(3)    R1        -46
    I20(3)    R2        128
    I21(3)    OBJ       -987
    I21(3)    R0        -172
    I21(3)    R1        -168
    I21(3)    R2        119
    I22(3)    OBJ       -138
    I22(3)    R0        -769
    I22(3)    R1        -527
    I22(3)    R2        823
    I23(3)    OBJ       -516
    I23(3)    R0        -435
    I23(3)    R1        -814
    I23(3)    R2        654
    I24(3)    OBJ       -74
    I24(3)    R0        -688
    I24(3)    R1        -603
    I24(3)    R2        932
    I25(3)    OBJ       -992
    I25(3)    R0        -842
    I25(3)    R1        -214
    I25(3)    R2        425
    I26(3)    OBJ       -281
    I26(3)    R0        -426
    I26(3)    R1        -655
    I26(3)    R2        867
    I27(3)    OBJ       -386
    I27(3)    R0        -969
    I27(3)    R1        -28
    I27(3)    R2        586
    I28(3)    OBJ       -158
    I28(3)    R0        -227
    I28(3)    R1        -182
    I28(3)    R2        453
    I29(3)    OBJ       -246
    I29(3)    R0        -584
    I29(3)    R1        -881
    I29(3)    R2        49
    I30(1)    R2        1
    MARKER    'MARKER'                 'INTEND'
RHS
    RHS1      R0        -11187
    RHS1      R1        -6618
    RHS1      R2        7621
BOUNDS
 UP BND1      I0(3)     1
 UP BND1      I1(3)     1
 UP BND1      I2(3)     1
 UP BND1      I3(3)     1
 UP BND1      I4(3)     1
 UP BND1      I5(3)     1
 UP BND1      I6(3)     1
 UP BND1      I7(3)     1
 UP BND1      I8(3)     1
 UP BND1      I9(3)     1
 UP BND1      I10(3)    1
 UP BND1      I11(3)    1
 UP BND1      I12(3)    1
 UP BND1      I13(3)    1
 UP BND1      I14(3)    1
 UP BND1      I15(3)    1
 UP BND1      I16(3)    1
 UP BND1      I17(3)    1
 UP BND1      I18(3)    1
 UP BND1      I19(3)    1
 UP BND1      I20(3)    1
 UP BND1      I21(3)    1
 UP BND1      I22(3)    1
 UP BND1      I23(3)    1
 UP BND1      I24(3)    1
 UP BND1      I25(3)    1
 UP BND1      I26(3)    1
 UP BND1      I27(3)    1
 UP BND1      I28(3)    1
 UP BND1      I29(3)    1
 LI BND1      I30(1)    0
ENDATA
